2 12 4 11 8 13 14 19 6 1 8 10 19 16 2 11 19 7 11 2
18 8 19 3 10 20 15 10 12 3 19 13 16 2 5 16 1 6 18 5
12 18 6 6 13 15 12 12 1 2 4 20 16 3 7 4 5 17 12 17
16 7 19 11 20 2 8 16 20 10 19 18 6 17 1 20 4 16 3 6
14 5 15 12 4 4 9 15 12 19 17 9 7 8 3 11 16 16 19 7
1 3 18 14 8 12 12 14 18 10 3 7 5 9 14 8 9 10 18 20
20 2 12 19 6 19 18 11 18 12 6 16 13 20 13 13 17 15 1 15
18 10 9 11 5 17 19 13 12 11 17 19 10 6 11 17 12 4 19 6
10 3 9 16 6 18 3 11 16 4 20 5 10 12 4 18 13 12 19 9
17 5 18 17 2 19 7 13 19 3 1 17 15 10 15 11 9 12 18 2
